c 3-SAT aleatoire, 50 variables, 213 clauses, graine 2026
p cnf 50 213
-12 38 -46 0
5 13 48 0
-7 -32 44 0
-8 -9 38 0
2 -19 32 0
17 -21 35 0
-7 22 -26 0
21 30 -38 0
-8 -18 -30 0
-11 -25 46 0
10 26 -27 0
-12 -40 43 0
9 -46 47 0
9 19 26 0
-2 39 44 0
-8 -35 -42 0
1 -8 20 0
-7 15 48 0
-24 38 -48 0
9 -31 34 0
-7 -9 -33 0
7 -12 13 0
-2 3 -11 0
26 38 -45 0
-9 -19 -32 0
-3 -5 13 0
-4 -46 47 0
-5 46 -47 0
-8 11 -42 0
5 -24 41 0
27 -36 42 0
-7 14 17 0
2 10 12 0
1 -11 24 0
9 39 -42 0
8 -14 -19 0
-14 26 33 0
8 -9 47 0
-14 34 -45 0
30 32 35 0
-11 19 -20 0
10 17 44 0
5 -41 -46 0
17 20 -32 0
18 30 -48 0
4 24 43 0
1 30 37 0
-14 15 -33 0
-11 25 35 0
-26 39 49 0
3 16 20 0
-9 16 27 0
-22 25 33 0
-20 35 47 0
-16 37 43 0
-29 35 41 0
-32 40 46 0
32 34 39 0
-9 11 -33 0
-6 -28 41 0
12 -17 -20 0
10 25 47 0
29 30 -50 0
11 14 41 0
11 29 39 0
14 -19 -49 0
26 29 43 0
35 37 38 0
-9 -28 -47 0
-6 11 30 0
-12 18 37 0
-2 9 -43 0
4 12 40 0
-21 32 37 0
14 -19 26 0
28 46 -47 0
-5 -19 24 0
24 -28 -37 0
-2 3 49 0
8 19 35 0
5 16 -24 0
-13 -36 -46 0
-22 -39 42 0
1 -4 -5 0
19 -22 46 0
7 -23 -32 0
-9 41 49 0
-3 -37 -48 0
-5 -36 -42 0
-4 19 38 0
12 -15 20 0
37 42 -49 0
21 -27 34 0
17 -20 47 0
-3 33 -39 0
-23 28 48 0
18 -21 -35 0
14 27 -46 0
-14 24 -32 0
-11 -19 -27 0
-8 20 42 0
-6 15 18 0
-13 -25 -29 0
26 -37 42 0
-5 -18 -45 0
15 17 -42 0
21 28 -41 0
-24 -38 -44 0
4 -8 -33 0
-8 -29 35 0
25 26 45 0
-1 -12 33 0
-2 -22 -36 0
-30 40 49 0
-25 -32 -34 0
26 -38 50 0
21 23 42 0
-19 -24 49 0
-43 -44 -45 0
4 -32 35 0
5 -12 26 0
5 29 -32 0
3 18 -41 0
-6 11 -29 0
21 22 -30 0
-30 -32 -33 0
23 31 -38 0
25 -37 -38 0
-9 -13 34 0
18 -21 50 0
8 -21 37 0
-26 -31 50 0
5 20 30 0
-18 -24 49 0
31 32 36 0
1 17 -19 0
-12 18 -34 0
8 -14 -20 0
14 -33 49 0
-22 31 40 0
21 25 -35 0
-9 24 -45 0
10 20 -41 0
-25 44 -46 0
-16 22 -35 0
-4 12 -31 0
10 -35 50 0
2 -21 -23 0
2 4 -41 0
21 22 24 0
-18 34 -35 0
10 -11 -26 0
11 34 -38 0
-1 22 38 0
9 10 -40 0
-20 -22 36 0
18 -20 -43 0
-21 -24 47 0
11 -35 39 0
6 -27 -46 0
1 -16 42 0
-1 21 33 0
-8 -47 -49 0
43 48 50 0
36 38 46 0
3 -16 30 0
-1 4 -37 0
9 15 27 0
-15 -19 27 0
3 -8 19 0
-6 18 -44 0
-7 -10 21 0
26 -29 -31 0
-2 10 -27 0
-33 34 -48 0
-11 -15 -34 0
3 -29 31 0
2 -22 -32 0
25 -26 -39 0
18 -29 39 0
-33 38 -43 0
4 28 46 0
-21 -25 46 0
-12 -28 44 0
18 -30 48 0
13 -14 -43 0
15 -28 -49 0
1 17 -20 0
-14 -16 33 0
1 -20 -21 0
8 -14 24 0
-2 30 -33 0
13 42 -43 0
-6 -23 -31 0
11 -24 44 0
8 -21 28 0
3 -4 -27 0
-12 25 29 0
-26 28 -40 0
-13 31 49 0
-7 33 -37 0
14 -39 -48 0
19 30 40 0
40 42 48 0
-20 -36 -50 0
11 32 -36 0
-3 20 23 0
1 -17 20 0
3 28 -31 0
-14 21 23 0
4 -31 34 0
6 -16 47 0
37 39 -43 0
