c 3-SAT aleatoire, 20 variables, 85 clauses, graine 2026
p cnf 20 85
-4 -11 -17 0
-8 -14 -18 0
15 16 -19 0
-1 -4 -15 0
7 9 -13 0
-3 -13 17 0
-5 -10 -15 0
1 12 -19 0
-4 -16 18 0
13 16 -17 0
-16 -17 -19 0
-2 4 17 0
-4 -8 -15 0
-9 18 -20 0
13 16 17 0
-2 -5 15 0
7 -9 16 0
-2 -14 18 0
4 -15 17 0
3 -14 -16 0
5 7 14 0
3 18 -19 0
-2 9 -18 0
-11 -16 -19 0
-5 -16 -19 0
-3 -6 -14 0
10 -14 17 0
1 -4 13 0
1 -12 19 0
-4 -11 -16 0
5 17 -19 0
3 8 -18 0
2 -18 20 0
1 -5 -17 0
5 6 19 0
3 10 13 0
-10 14 15 0
9 -17 -20 0
3 -11 -15 0
1 -6 -12 0
-4 7 -18 0
-7 10 -19 0
-4 9 -14 0
-4 6 17 0
6 -9 11 0
1 9 14 0
4 -12 18 0
2 13 20 0
-4 -12 17 0
2 -12 14 0
4 -10 -14 0
-7 11 18 0
-2 4 20 0
1 -10 14 0
-8 14 20 0
13 -18 -20 0
1 9 18 0
-3 -6 -19 0
-9 11 -17 0
1 8 -16 0
-5 -12 13 0
-7 11 -12 0
10 16 -19 0
-1 -12 -17 0
-3 10 -12 0
-1 4 -18 0
-2 -13 19 0
4 6 -17 0
2 -9 -10 0
10 18 20 0
1 -14 -16 0
6 17 18 0
-1 -4 -17 0
-3 12 -20 0
-4 5 -8 0
-3 9 -13 0
-4 -16 -18 0
12 15 -19 0
9 10 -16 0
-11 17 -18 0
11 -13 16 0
-12 14 -20 0
5 15 19 0
9 -15 20 0
-4 5 -18 0
