c 3-SAT aleatoire, 75 variables, 320 clauses, graine 2026
p cnf 75 320
17 37 -74 0
6 9 -66 0
-5 -21 49 0
-18 31 34 0
9 -26 38 0
21 23 -68 0
-22 53 66 0
-6 41 69 0
18 46 -73 0
-53 -58 66 0
-30 36 65 0
-32 -37 -68 0
26 -54 -62 0
12 55 58 0
-9 -21 -45 0
-5 8 72 0
-2 26 -66 0
-12 -24 -71 0
-6 37 72 0
-3 56 74 0
-4 47 -51 0
1 15 72 0
1 11 -61 0
29 -63 65 0
19 -43 -64 0
6 47 -64 0
43 51 59 0
2 -26 -28 0
6 -63 -64 0
-4 -50 69 0
25 -70 -75 0
6 -10 16 0
28 -45 -48 0
-11 -46 74 0
13 -16 -54 0
9 -50 -73 0
-1 39 59 0
31 -49 64 0
19 -48 -52 0
-33 46 56 0
3 7 64 0
-23 -58 61 0
-27 49 -55 0
28 -66 72 0
1 -43 -64 0
-12 45 -71 0
-9 52 59 0
10 18 34 0
2 22 50 0
27 48 -58 0
28 -32 68 0
38 -70 73 0
20 66 72 0
16 20 -28 0
-36 46 53 0
-29 50 68 0
-32 -60 68 0
-16 -49 -52 0
-14 41 -63 0
10 -39 63 0
-5 -41 -61 0
10 31 -60 0
-11 13 44 0
-6 44 -65 0
39 -52 73 0
-17 37 -53 0
-27 48 67 0
10 30 -50 0
-14 15 -50 0
17 25 40 0
35 49 -56 0
-27 61 -62 0
-3 34 43 0
15 48 66 0
-19 38 -42 0
6 -23 -71 0
14 -31 51 0
14 -33 73 0
-15 -31 -70 0
60 63 -65 0
-18 52 -53 0
-14 22 -42 0
9 35 63 0
25 -45 59 0
-34 -54 61 0
-15 40 -49 0
-20 -34 -75 0
-26 -33 -57 0
-16 -47 -54 0
-8 13 -75 0
-57 -62 -71 0
16 50 57 0
-45 52 -73 0
-12 -15 -53 0
-7 -23 -62 0
7 -47 63 0
-11 34 48 0
25 50 -51 0
-2 5 41 0
19 55 58 0
47 49 -63 0
37 58 -62 0
-19 31 67 0
-12 -24 -47 0
18 -19 47 0
-36 -53 58 0
16 27 29 0
3 22 -55 0
-16 -23 -67 0
10 -12 -24 0
29 48 57 0
17 -35 64 0
-28 -31 61 0
34 41 -51 0
-5 11 50 0
-15 -22 -29 0
27 54 64 0
37 68 69 0
-8 19 -34 0
-3 14 61 0
-24 26 65 0
2 41 -55 0
7 22 -70 0
32 34 52 0
-14 -37 58 0
19 -46 -48 0
-5 31 62 0
-3 12 -57 0
33 -41 -44 0
6 25 -60 0
7 -36 68 0
26 -47 -71 0
-28 -35 -70 0
29 51 64 0
-24 34 -64 0
16 -32 -58 0
11 -65 -69 0
-27 48 -68 0
31 40 47 0
12 -16 -44 0
-10 -17 51 0
42 -45 -55 0
-5 23 -60 0
-17 31 -46 0
-7 31 50 0
41 -47 56 0
23 34 -68 0
14 -29 57 0
20 54 -69 0
-4 -50 58 0
-21 -27 29 0
2 -49 70 0
-7 -10 11 0
15 30 73 0
5 8 45 0
13 -33 -58 0
15 24 47 0
14 49 -54 0
35 -50 72 0
40 47 -59 0
8 53 64 0
-14 -28 -48 0
31 46 -59 0
13 -14 37 0
-8 9 -73 0
4 -67 -70 0
31 44 -67 0
24 33 64 0
-4 -51 -59 0
-15 -29 38 0
3 -9 27 0
-24 -34 70 0
36 60 -63 0
-21 52 54 0
-5 -52 69 0
34 -43 -69 0
14 18 -55 0
-8 -38 -52 0
31 -55 67 0
-34 -37 -38 0
11 25 37 0
37 42 51 0
-50 -52 69 0
-65 66 69 0
-2 -10 70 0
19 -46 -73 0
14 26 70 0
-20 47 -66 0
21 -29 -60 0
-41 -46 -56 0
-15 61 68 0
14 47 -75 0
22 58 66 0
33 -50 58 0
-6 -31 -73 0
19 -22 40 0
-11 -21 -63 0
5 31 38 0
8 25 45 0
-43 -50 -65 0
8 23 62 0
-25 -55 63 0
8 36 43 0
-9 -12 -73 0
27 47 -74 0
-16 -23 -32 0
25 -35 -68 0
-21 37 42 0
8 -34 -60 0
-14 -25 -28 0
-29 -44 69 0
-1 -44 -47 0
21 -22 -33 0
-35 41 -64 0
-17 53 -71 0
44 -50 67 0
2 -61 -69 0
-6 -41 55 0
5 -6 -56 0
16 -26 -38 0
-38 -44 -55 0
11 71 -72 0
-12 -24 -30 0
15 26 75 0
23 25 -29 0
25 64 72 0
-15 -34 -55 0
3 11 -55 0
-7 17 56 0
-11 21 30 0
-52 57 -70 0
-38 50 58 0
-2 -3 9 0
10 25 -42 0
2 20 48 0
12 19 -71 0
-32 36 44 0
6 32 34 0
-27 69 -74 0
32 -58 -64 0
12 -22 -39 0
3 17 -71 0
9 -12 -51 0
-2 -46 72 0
23 -25 52 0
18 -34 48 0
14 29 55 0
15 16 44 0
1 -60 70 0
-15 22 44 0
-25 -39 -54 0
-3 44 -75 0
33 -52 64 0
-27 64 74 0
16 -19 62 0
-8 51 53 0
6 7 65 0
-38 -66 -71 0
6 29 -49 0
-5 44 62 0
19 -36 39 0
-5 -23 34 0
38 -53 67 0
14 -46 -52 0
32 63 -73 0
18 -24 38 0
9 41 -43 0
-26 58 75 0
-17 -27 -54 0
7 -16 63 0
-16 -32 34 0
23 31 50 0
-14 23 71 0
-57 60 -64 0
-26 27 -51 0
-25 63 72 0
-5 38 44 0
-4 45 -73 0
-24 45 54 0
41 69 71 0
38 40 73 0
19 -52 67 0
-22 45 -70 0
-6 -43 -62 0
-9 26 -53 0
-9 -20 -31 0
-19 26 -55 0
-20 36 -41 0
5 14 -21 0
-6 39 60 0
-4 10 -34 0
5 52 73 0
-24 -48 -52 0
27 33 -70 0
32 -63 -64 0
-14 21 -33 0
27 54 65 0
32 70 -72 0
1 20 26 0
21 -39 55 0
-2 -11 -47 0
1 -23 -25 0
-11 -54 55 0
-27 -49 51 0
8 43 -45 0
-10 -26 41 0
14 48 54 0
12 32 -49 0
-47 53 70 0
1 -14 -16 0
-10 -38 60 0
-6 -9 -34 0
44 47 73 0
4 -15 60 0
-2 -8 23 0
3 13 -40 0
-3 -10 45 0
-25 37 47 0
-31 33 55 0
-2 -15 32 0
