c 3-SAT aleatoire, 75 variables, 320 clauses, graine 2026
p cnf 75 320
-17 28 29 0
11 20 -34 0
-15 -34 -60 0
14 -35 -45 0
-6 -30 -62 0
16 45 -55 0
7 18 71 0
16 -38 39 0
5 -36 -60 0
-28 -36 -73 0
-19 64 -70 0
17 -21 -22 0
58 -73 75 0
46 50 -58 0
5 14 62 0
-3 10 -12 0
14 -23 30 0
-22 30 61 0
10 -16 -62 0
-3 -8 57 0
-38 45 75 0
-6 9 -69 0
18 63 -69 0
-9 -26 -34 0
28 46 -56 0
-25 47 -49 0
-29 -37 -50 0
-26 50 53 0
5 16 -73 0
-13 -57 72 0
7 54 -68 0
-14 -40 69 0
-17 23 -47 0
-28 -48 55 0
1 9 -58 0
-15 -34 -42 0
8 -46 73 0
26 -28 -35 0
24 66 69 0
-1 24 26 0
-7 -29 -57 0
31 35 -51 0
-52 64 -67 0
-14 -53 -59 0
-12 -19 69 0
16 -30 50 0
-16 -41 69 0
-35 43 -72 0
3 -9 47 0
3 -38 72 0
-20 55 -68 0
20 -31 37 0
-7 11 29 0
-65 -71 75 0
12 61 62 0
-1 9 -11 0
-3 -12 -30 0
4 6 40 0
-7 -12 -28 0
29 48 -61 0
15 -49 50 0
3 33 -48 0
6 -41 -49 0
-40 41 -67 0
-36 46 73 0
-18 -53 -66 0
10 -48 70 0
29 30 -75 0
-18 32 64 0
-11 31 -56 0
14 66 75 0
-6 -23 -46 0
7 27 -61 0
-4 14 -31 0
41 -47 57 0
1 36 58 0
7 8 68 0
16 -29 57 0
33 -60 -70 0
-3 39 -67 0
14 -26 -42 0
4 28 -38 0
4 57 -60 0
-54 -70 75 0
3 -34 -55 0
2 26 -53 0
-4 34 74 0
-5 -55 -65 0
32 42 43 0
8 12 15 0
3 46 -63 0
-9 19 -57 0
-16 37 -51 0
9 23 -41 0
-11 32 -48 0
30 53 73 0
16 30 52 0
-25 58 68 0
-17 28 53 0
-10 40 48 0
-5 -46 -68 0
49 50 73 0
-35 -50 -75 0
-5 -39 62 0
15 -29 -68 0
-7 18 63 0
-22 39 -57 0
39 -45 66 0
-36 46 -54 0
-19 -45 -68 0
22 -39 43 0
26 -55 -68 0
16 -47 -60 0
3 -22 -38 0
2 18 -51 0
15 19 63 0
-42 -58 -61 0
22 49 -51 0
2 28 30 0
-7 34 -59 0
25 59 -74 0
16 33 63 0
-2 -44 -52 0
10 14 -28 0
-14 -23 -50 0
-26 35 -54 0
17 -30 -69 0
-5 20 48 0
19 29 62 0
-13 -18 -34 0
43 44 -74 0
10 35 57 0
-29 -46 -71 0
-5 40 -58 0
-5 23 56 0
-32 -46 72 0
-28 -40 -54 0
22 -47 49 0
-8 -13 -70 0
26 -48 -52 0
-36 56 74 0
-16 -32 54 0
1 15 -64 0
-17 -57 73 0
-45 47 71 0
27 29 -43 0
-9 -10 -35 0
-20 26 -59 0
27 -65 -74 0
14 -59 -65 0
24 59 -65 0
13 -26 -41 0
29 52 -62 0
-23 24 -67 0
29 30 -74 0
-8 17 -21 0
20 25 73 0
-19 -20 -57 0
20 28 29 0
-15 24 30 0
-8 39 -40 0
4 -53 -59 0
2 40 -43 0
-4 26 -53 0
-11 -63 -66 0
6 -13 -75 0
5 -37 -67 0
30 -58 -59 0
-8 41 44 0
10 -45 -71 0
48 -55 -71 0
38 -45 -65 0
-32 -42 -60 0
27 -39 57 0
-11 -14 -42 0
12 37 50 0
-16 -18 -59 0
-23 -34 37 0
-12 17 -60 0
-5 -24 48 0
2 20 44 0
-48 -55 69 0
-5 -40 45 0
28 30 47 0
53 -57 -61 0
-9 -16 19 0
-4 54 64 0
-34 -56 71 0
-28 -29 -53 0
21 -37 -71 0
9 60 -61 0
-7 21 25 0
21 37 54 0
27 -44 -68 0
-27 55 60 0
-14 16 -53 0
-13 -14 -54 0
12 -22 -27 0
9 35 -62 0
23 38 -54 0
8 44 45 0
24 -32 -58 0
-8 10 11 0
4 -43 -65 0
13 30 -39 0
49 -50 -69 0
10 -31 34 0
-2 12 -36 0
-17 47 -60 0
15 52 72 0
1 16 -69 0
-24 -30 -70 0
1 50 55 0
-24 38 -73 0
-38 43 -64 0
-42 64 67 0
-15 -21 -29 0
20 21 46 0
18 32 -64 0
-28 -54 75 0
-32 -44 56 0
38 46 48 0
-42 59 -74 0
-3 17 -30 0
56 68 69 0
5 21 72 0
-38 -63 64 0
34 -39 -53 0
17 38 -69 0
24 33 -36 0
22 35 50 0
46 57 -71 0
-33 48 49 0
62 -64 -70 0
38 -43 74 0
-24 -57 -63 0
5 19 -70 0
3 5 38 0
-13 39 -55 0
-22 40 48 0
4 19 63 0
23 49 -65 0
-5 18 -35 0
6 -28 50 0
11 -19 -40 0
-22 47 58 0
9 17 50 0
-4 -32 34 0
-18 -51 54 0
-16 59 71 0
21 -69 -73 0
-18 46 -60 0
-1 -12 -50 0
-59 -63 75 0
12 54 69 0
8 -47 61 0
1 -23 59 0
-13 -33 61 0
-5 7 19 0
-20 -42 -52 0
14 -21 32 0
-14 -23 29 0
38 55 65 0
-18 20 39 0
1 -24 -58 0
30 44 45 0
-7 -38 70 0
15 44 -74 0
-23 57 -62 0
-42 -55 73 0
-50 53 64 0
32 59 75 0
-2 -27 -56 0
36 66 70 0
2 -21 -35 0
-18 -20 -49 0
33 -35 70 0
-1 -18 34 0
6 53 -68 0
-24 31 70 0
37 -45 -46 0
-2 19 -23 0
42 60 63 0
25 33 -70 0
-1 -15 -31 0
-38 -50 58 0
-14 -26 48 0
-28 53 70 0
-47 -53 -60 0
-13 -28 -37 0
8 -23 -73 0
6 24 31 0
2 14 28 0
-41 43 -46 0
-61 -67 -74 0
-21 -44 53 0
-20 -58 74 0
5 8 74 0
-37 -39 45 0
-4 -25 74 0
-8 28 43 0
15 -40 49 0
4 28 -42 0
-3 -18 28 0
1 -19 -25 0
23 45 -58 0
-35 46 -52 0
7 11 39 0
10 23 -48 0
-10 -20 58 0
1 31 55 0
-31 38 48 0
-1 51 63 0
20 -35 63 0
-50 -67 70 0
40 71 72 0
-9 -27 56 0
24 31 57 0
-24 -35 60 0
45 59 65 0
