c 3-SAT aleatoire, 50 variables, 213 clauses, graine 2026
p cnf 50 213
14 25 -42 0
-3 -13 50 0
-5 -48 49 0
-6 20 -21 0
-13 -42 -48 0
-13 20 22 0
11 -26 -35 0
20 -31 -47 0
20 44 -48 0
-3 -8 -11 0
-22 34 35 0
-9 35 -36 0
-17 -35 -44 0
-19 21 -50 0
10 22 33 0
-5 -15 -28 0
-25 -31 42 0
-5 -22 -38 0
6 36 -47 0
15 -26 -45 0
-6 9 -30 0
17 -24 25 0
-17 23 24 0
14 -30 -49 0
-9 -21 40 0
-11 -15 22 0
-14 -17 -21 0
18 -25 -44 0
-20 36 -37 0
31 44 50 0
11 -28 42 0
-11 40 -47 0
6 31 36 0
-11 19 45 0
-24 -30 33 0
10 -30 48 0
-3 8 43 0
-19 -35 -44 0
-13 23 43 0
5 27 34 0
27 35 -46 0
19 35 47 0
-24 33 37 0
3 5 -16 0
9 15 39 0
-4 -36 44 0
13 15 30 0
-1 31 38 0
6 18 -48 0
4 -14 -20 0
-7 9 20 0
-12 29 33 0
-15 24 -29 0
2 17 -43 0
19 -41 50 0
-7 -18 32 0
5 -21 -50 0
8 32 41 0
-22 -43 -46 0
17 -20 37 0
27 -43 50 0
14 30 -48 0
-20 -28 -49 0
-10 -21 -35 0
-12 40 -41 0
4 -32 -44 0
16 20 48 0
24 -25 -32 0
12 -17 49 0
-8 -23 46 0
18 -31 -45 0
15 -37 44 0
-8 -23 43 0
20 31 -34 0
16 -30 -43 0
-15 23 24 0
-22 -23 44 0
9 -32 -37 0
22 -25 26 0
11 30 -45 0
-6 -9 -30 0
-2 -5 -9 0
-13 -38 48 0
-25 -29 31 0
22 -25 -41 0
13 -31 -38 0
-8 -37 47 0
30 38 -39 0
-8 14 50 0
24 -27 -35 0
4 -25 28 0
19 21 22 0
3 11 13 0
4 -31 -50 0
2 19 -31 0
-12 31 33 0
10 14 -29 0
-5 26 39 0
19 23 -32 0
-18 24 48 0
-2 23 33 0
-3 -4 35 0
28 -44 49 0
-7 8 23 0
-12 21 -29 0
-13 27 48 0
3 -14 31 0
-3 9 20 0
-1 27 -45 0
10 17 -32 0
-16 28 -31 0
2 14 21 0
-3 38 -41 0
7 18 -47 0
4 32 43 0
-16 33 49 0
6 -41 -45 0
1 -3 28 0
-9 35 36 0
7 8 24 0
21 -45 -47 0
4 -36 50 0
4 15 31 0
27 -29 -30 0
3 24 37 0
5 -6 -48 0
15 45 47 0
7 -10 -43 0
17 -27 39 0
23 32 -39 0
29 31 -48 0
4 10 26 0
7 -18 30 0
23 29 47 0
-13 20 23 0
3 -36 -46 0
-5 -15 40 0
-17 -18 -42 0
-21 35 -38 0
18 39 -43 0
-12 38 -49 0
33 -39 -40 0
15 -19 28 0
-18 -26 -36 0
31 34 40 0
21 22 -28 0
-20 -22 48 0
14 22 -42 0
-16 31 43 0
16 40 48 0
7 26 28 0
-2 13 -28 0
1 -17 -35 0
-9 -15 21 0
21 34 -49 0
15 -34 -47 0
25 30 -42 0
14 22 -44 0
-5 -26 43 0
-2 -41 -47 0
32 33 -44 0
24 27 46 0
9 -30 -41 0
-10 -27 -44 0
17 22 -39 0
-1 23 -38 0
-4 14 -16 0
11 -33 -43 0
26 -40 45 0
16 30 -41 0
-10 23 47 0
23 -25 -28 0
-7 22 -37 0
-5 21 -36 0
28 -30 -36 0
18 31 45 0
6 -8 12 0
-8 19 -44 0
-16 44 -45 0
-20 26 -45 0
-6 44 47 0
19 30 37 0
-4 -28 45 0
11 39 -47 0
-14 -19 41 0
3 33 50 0
28 38 -42 0
-30 42 -46 0
8 12 48 0
4 -36 40 0
16 -20 -35 0
-1 -22 33 0
-32 -43 -46 0
-2 12 47 0
-18 -42 47 0
15 -21 47 0
20 25 -42 0
18 21 33 0
19 23 -32 0
22 -23 47 0
-38 39 47 0
-6 -14 41 0
-24 -27 -37 0
-45 -47 50 0
18 -37 44 0
6 27 -50 0
-5 -6 -27 0
1 -18 -22 0
21 37 -48 0
3 18 -21 0
-27 49 50 0
36 -45 -46 0
3 -21 23 0
