c 3-SAT aleatoire, 50 variables, 213 clauses, graine 2026
p cnf 50 213
9 -11 -43 0
-8 12 43 0
-32 33 -47 0
-9 -36 -43 0
17 -21 45 0
-2 17 -41 0
28 29 -37 0
6 -29 36 0
-13 39 -40 0
-7 46 -49 0
2 17 33 0
-12 19 31 0
-3 -12 -23 0
24 -30 47 0
-3 6 45 0
3 -9 -13 0
18 -24 32 0
16 -32 -50 0
32 -42 -46 0
13 16 -23 0
7 17 -36 0
2 26 29 0
4 -12 41 0
1 10 -42 0
15 -46 50 0
-2 32 44 0
24 27 -29 0
9 -17 -45 0
-7 -8 -18 0
3 -12 49 0
-33 -42 49 0
-13 25 -48 0
3 -4 7 0
11 -19 -20 0
-15 21 31 0
16 -36 -46 0
37 -38 -49 0
13 -21 45 0
7 -8 -42 0
9 -32 45 0
21 27 46 0
-5 -8 -12 0
-17 26 36 0
17 41 45 0
-13 18 -50 0
-15 -20 -38 0
-5 7 41 0
17 -31 -35 0
-2 -3 19 0
2 5 -34 0
-3 -5 -48 0
4 -10 21 0
-1 10 -18 0
7 19 25 0
2 22 30 0
44 46 49 0
-21 29 -36 0
1 -45 -49 0
-14 -32 39 0
9 29 31 0
21 -38 -48 0
4 -18 -24 0
6 -13 -37 0
-10 -18 28 0
28 34 39 0
-25 26 -50 0
-25 -39 -47 0
43 -44 -45 0
18 30 37 0
-3 32 -47 0
-21 24 32 0
16 36 49 0
-15 22 37 0
3 22 -32 0
-2 18 -24 0
22 26 -37 0
-13 18 47 0
-10 -11 36 0
-28 41 -48 0
16 -19 -24 0
-22 -33 47 0
-4 14 -24 0
8 27 30 0
-10 22 -27 0
16 -41 -42 0
-13 23 34 0
22 -28 -34 0
-9 22 32 0
-14 -44 -50 0
-3 -11 45 0
25 39 -45 0
-21 35 -41 0
11 -17 40 0
-22 24 -42 0
9 -44 48 0
-22 -33 38 0
-9 25 -40 0
5 7 -43 0
-9 -30 32 0
6 11 27 0
-14 -15 -18 0
-40 -47 -50 0
-25 37 46 0
3 10 -24 0
27 33 49 0
25 -36 47 0
-25 -34 -37 0
21 46 -50 0
5 -14 -24 0
16 25 -35 0
4 35 46 0
-23 37 42 0
8 -34 -46 0
2 -28 43 0
-1 2 7 0
-2 3 37 0
10 -16 -39 0
1 6 36 0
19 -34 43 0
-18 -25 38 0
7 -15 -34 0
7 45 47 0
6 20 -22 0
19 41 49 0
1 -10 38 0
32 -35 39 0
7 -21 -44 0
-30 -40 41 0
17 25 -49 0
-36 46 -49 0
-6 28 -41 0
-28 38 -48 0
-18 -33 -40 0
2 3 -6 0
-22 26 -36 0
6 26 37 0
7 10 -13 0
8 11 40 0
-35 40 42 0
8 17 -33 0
5 18 -49 0
-34 -44 46 0
4 -27 -32 0
-3 16 -40 0
6 10 -38 0
-11 -15 -43 0
-26 -40 -45 0
3 16 -31 0
3 24 31 0
6 -35 40 0
15 -40 49 0
8 14 -37 0
-4 39 47 0
-7 -32 -42 0
-8 -18 38 0
14 17 44 0
5 -20 -21 0
11 35 -40 0
-5 -10 11 0
12 28 31 0
18 43 -49 0
-12 -40 45 0
6 30 34 0
-7 -17 -50 0
17 -21 -33 0
-2 -42 -43 0
11 -42 47 0
1 21 27 0
10 16 -21 0
20 42 -45 0
-6 -11 45 0
-13 22 -42 0
-14 -41 -48 0
15 31 -32 0
6 12 -33 0
4 -36 38 0
28 42 49 0
13 -22 37 0
18 -29 38 0
-14 -16 -35 0
-7 20 -33 0
5 20 46 0
16 24 41 0
34 -37 45 0
3 17 -36 0
4 -19 25 0
6 33 46 0
-7 -25 -49 0
8 22 -49 0
6 14 15 0
-17 -20 -40 0
7 32 -44 0
-1 -14 15 0
11 -14 38 0
16 22 41 0
-1 10 -25 0
-7 9 20 0
-4 -5 -48 0
-10 -16 42 0
13 -46 -47 0
-20 -26 -48 0
26 -31 -47 0
-2 -11 -32 0
8 17 -37 0
18 -23 33 0
-25 29 -32 0
-8 33 -36 0
-15 23 -50 0
15 24 -27 0
12 13 38 0
-4 17 38 0
16 32 -50 0
11 42 43 0
