c 3-SAT aleatoire, 75 variables, 320 clauses, graine 2026
p cnf 75 320
11 18 -73 0
-3 4 55 0
-14 16 47 0
19 22 25 0
-30 -44 -72 0
42 60 -62 0
-5 34 62 0
-11 -65 -73 0
-48 54 57 0
6 -21 -26 0
36 -55 59 0
21 -35 45 0
15 -16 62 0
-12 -31 -57 0
-19 35 -39 0
38 41 -66 0
5 59 68 0
23 30 72 0
24 -29 47 0
-13 -51 60 0
2 -21 -69 0
-11 -28 58 0
16 18 32 0
8 -33 -61 0
-35 56 65 0
39 50 -66 0
-15 44 59 0
27 31 -32 0
29 -52 -70 0
-16 66 -74 0
-37 44 -67 0
19 48 58 0
49 54 55 0
5 -18 -23 0
-18 -45 51 0
-12 59 75 0
-36 -52 -73 0
1 18 66 0
-20 -28 45 0
-1 -71 -74 0
-12 -18 -48 0
42 -64 -68 0
-15 33 -46 0
-17 47 -68 0
-33 42 -72 0
3 -4 60 0
2 22 36 0
28 -43 47 0
-27 30 -37 0
-31 51 54 0
-1 59 -68 0
-26 65 -71 0
-27 34 -70 0
28 -33 66 0
7 21 -57 0
24 41 -73 0
-11 38 66 0
1 33 -66 0
-15 -29 57 0
8 -43 74 0
-11 18 23 0
-14 -32 71 0
-16 63 -65 0
24 -36 -50 0
26 38 58 0
-3 14 -20 0
-3 15 -34 0
-12 55 69 0
13 -24 34 0
-14 -16 -73 0
-28 33 48 0
-33 36 53 0
19 30 -34 0
8 23 27 0
23 27 68 0
18 -38 68 0
-6 -25 -71 0
38 56 65 0
-20 70 71 0
11 -31 -43 0
-15 22 50 0
29 -54 63 0
-40 42 -46 0
-41 -48 -69 0
18 27 -35 0
15 27 -68 0
34 -43 46 0
-36 -48 -51 0
39 -59 -70 0
17 18 20 0
-22 36 47 0
6 10 -19 0
30 -31 -60 0
-6 -22 47 0
-4 -23 -53 0
-17 -63 -74 0
40 45 -49 0
-3 -22 -28 0
-5 43 57 0
-26 -28 -40 0
3 -26 71 0
-10 -41 59 0
-56 61 66 0
-7 -37 -75 0
28 44 50 0
42 56 -66 0
28 -51 69 0
-15 -25 59 0
-9 -21 -73 0
-47 -52 58 0
15 56 75 0
22 35 -42 0
7 -58 -59 0
-24 -69 -73 0
3 45 -61 0
-1 -27 -39 0
8 63 70 0
25 28 -35 0
-32 -38 -62 0
-16 -70 72 0
6 32 -60 0
30 37 -50 0
-3 -19 64 0
-29 44 -61 0
-6 25 27 0
19 32 72 0
9 -57 67 0
-5 -54 75 0
1 -54 59 0
-3 -20 57 0
27 -45 -61 0
16 20 49 0
2 59 62 0
-15 -21 55 0
-14 20 40 0
5 -7 -12 0
27 28 63 0
-45 -58 68 0
16 -46 -51 0
-14 -32 59 0
-8 -19 44 0
14 -59 -64 0
-7 56 -63 0
-22 27 -64 0
39 -47 73 0
52 68 72 0
-17 34 58 0
1 -2 -33 0
-26 -50 -58 0
-6 51 -70 0
-8 -51 -75 0
16 -26 41 0
-11 12 27 0
8 -41 70 0
54 -60 -68 0
14 -53 68 0
-20 -46 -52 0
31 36 44 0
-26 -37 65 0
32 46 -69 0
-18 39 -41 0
-16 -61 70 0
-19 24 -48 0
15 40 66 0
39 51 69 0
-30 32 65 0
-1 52 -56 0
-10 12 -25 0
-20 -32 61 0
-5 13 29 0
-8 -40 53 0
-19 -20 -24 0
-14 -49 58 0
-2 -42 -57 0
-27 -49 -59 0
2 -25 34 0
-20 -23 26 0
27 63 -68 0
-65 67 -68 0
-41 46 -64 0
3 -11 72 0
-16 -73 -75 0
24 -30 62 0
4 -44 -72 0
27 -38 55 0
-51 -55 -70 0
47 -54 -72 0
24 -72 73 0
5 -41 51 0
4 48 58 0
27 -40 -54 0
-53 -58 64 0
3 -64 71 0
27 -36 63 0
16 -24 71 0
14 23 66 0
-2 -31 49 0
6 -29 -64 0
-39 -69 -74 0
39 50 -59 0
55 -56 63 0
-53 74 -75 0
33 45 -61 0
8 -41 52 0
6 19 47 0
-18 -48 55 0
11 34 62 0
-23 34 64 0
16 -30 60 0
-25 -54 59 0
-29 -58 73 0
-9 25 -40 0
-9 32 -46 0
-10 21 59 0
-48 -65 73 0
25 35 60 0
16 -22 62 0
-56 59 -67 0
50 57 -71 0
-40 -55 -57 0
3 9 35 0
5 -32 -73 0
-35 47 58 0
31 -47 61 0
16 18 -64 0
26 51 72 0
20 66 71 0
4 -6 -51 0
-11 -52 71 0
-41 44 -47 0
26 -28 -39 0
12 29 -73 0
10 65 66 0
7 28 -36 0
-32 40 48 0
38 61 74 0
35 37 70 0
6 -20 25 0
42 59 68 0
-18 23 55 0
-2 35 49 0
-2 16 -29 0
-8 -53 55 0
-28 35 -41 0
-49 66 68 0
16 59 75 0
-11 47 -65 0
-3 -22 57 0
20 42 -61 0
6 39 -65 0
-9 -38 45 0
23 -33 -71 0
25 -45 75 0
16 44 50 0
10 34 -38 0
-9 53 -70 0
-36 39 -66 0
-53 66 71 0
16 41 70 0
-34 -65 66 0
9 -17 -42 0
8 -61 -71 0
-19 -50 70 0
20 45 59 0
18 -33 59 0
30 -52 -58 0
1 51 -66 0
30 61 -73 0
-24 46 54 0
-58 -70 -74 0
6 -33 -61 0
-12 -54 -59 0
-37 38 47 0
-26 27 -58 0
-24 36 67 0
-41 -49 -56 0
9 41 45 0
-69 74 75 0
-36 61 67 0
-43 60 61 0
24 -26 70 0
54 56 -73 0
29 44 47 0
-44 47 -56 0
9 -58 -64 0
-9 -54 72 0
-7 33 43 0
-16 38 56 0
-10 -29 50 0
14 -15 55 0
-32 -42 61 0
33 62 -68 0
-3 -40 43 0
21 -34 -58 0
-30 -41 -74 0
1 29 40 0
-26 -62 -67 0
-31 39 66 0
1 -29 47 0
14 -18 49 0
34 46 53 0
-25 27 -33 0
43 45 62 0
-45 58 69 0
-14 15 44 0
11 -25 27 0
37 -63 -75 0
15 35 -61 0
-38 41 44 0
46 57 70 0
1 51 -53 0
-35 52 -64 0
-8 -67 -75 0
4 19 64 0
32 -50 52 0
10 14 -61 0
-41 -47 54 0
-15 40 42 0
-40 -62 -63 0
-24 29 -30 0
