c 3-SAT aleatoire, 20 variables, 85 clauses, graine 2026
p cnf 20 85
-1 -13 18 0
16 17 18 0
1 -6 13 0
14 16 -19 0
-4 8 -9 0
-9 -12 17 0
1 4 5 0
6 -10 20 0
5 18 19 0
-6 -17 -18 0
11 12 20 0
2 9 -11 0
9 12 -15 0
-7 -10 -13 0
-10 -17 -18 0
11 16 17 0
-6 -9 -18 0
4 7 13 0
-5 17 -20 0
-5 -16 18 0
13 -18 -19 0
-5 -19 -20 0
-2 9 10 0
5 12 18 0
5 -6 -14 0
-1 8 -10 0
-5 11 14 0
-2 -4 -12 0
-1 9 11 0
7 -14 20 0
-7 12 16 0
-12 -14 -15 0
15 -16 -18 0
-3 -4 12 0
6 -7 -14 0
-1 -5 -18 0
10 -12 -13 0
5 12 16 0
-12 -13 -15 0
9 11 -18 0
-17 -18 19 0
-2 3 -19 0
-13 15 -19 0
-1 5 11 0
1 -2 -9 0
4 5 11 0
-8 13 15 0
-2 -8 16 0
-13 16 19 0
2 13 17 0
-9 -11 -17 0
6 -12 17 0
-3 -7 19 0
-4 13 14 0
-6 9 17 0
2 7 -18 0
-12 15 -17 0
2 7 16 0
1 -7 -10 0
-3 -6 -18 0
-2 16 18 0
1 -2 8 0
-6 -19 20 0
9 -11 -13 0
-1 -3 12 0
8 -16 -17 0
6 16 18 0
-11 14 -16 0
1 9 19 0
-6 10 -19 0
6 -11 15 0
6 -16 17 0
5 -10 -14 0
1 5 13 0
3 -11 -15 0
9 -10 15 0
4 6 -11 0
8 -10 -13 0
4 8 -13 0
-7 10 -18 0
9 -12 15 0
7 -10 20 0
-13 -15 -16 0
11 -17 -20 0
-10 -17 -18 0
