c 3-SAT aleatoire, 20 variables, 85 clauses, graine 2026
p cnf 20 85
-12 -13 20 0
-8 12 -13 0
1 4 8 0
6 14 17 0
4 7 20 0
4 14 17 0
3 -5 11 0
7 16 18 0
-5 8 15 0
5 -14 18 0
3 15 -16 0
2 -6 14 0
-8 14 17 0
-5 9 10 0
-3 8 -12 0
-9 -11 20 0
-6 -8 17 0
9 -15 -17 0
7 15 -19 0
-4 -9 10 0
-11 19 -20 0
-11 -13 -14 0
-12 -14 15 0
-12 -13 20 0
2 -14 -15 0
2 4 -18 0
1 7 9 0
12 -15 -18 0
-2 10 20 0
-3 -4 -20 0
-2 -5 15 0
-10 12 -14 0
2 -10 -14 0
2 6 -13 0
-5 15 -16 0
5 -7 -14 0
5 -7 11 0
4 7 -15 0
1 3 12 0
-3 -10 18 0
8 -15 18 0
5 7 18 0
7 12 16 0
-3 -5 10 0
-8 12 -18 0
-5 -9 10 0
4 -7 -10 0
3 -11 16 0
-2 3 10 0
1 7 18 0
-4 9 11 0
-8 11 -18 0
-14 16 -20 0
-7 -9 -18 0
1 -3 18 0
-2 16 20 0
4 -9 12 0
7 -9 15 0
-12 -16 17 0
5 -7 10 0
14 18 -20 0
7 -16 18 0
3 -11 -18 0
6 8 -15 0
14 15 -19 0
2 -3 10 0
-3 -13 17 0
-4 -9 20 0
-11 19 -20 0
-1 6 10 0
-3 -15 17 0
1 6 13 0
1 18 20 0
2 -5 11 0
4 -15 -19 0
-5 7 16 0
-2 -7 10 0
4 14 -17 0
4 10 13 0
1 8 -17 0
-1 7 20 0
3 14 15 0
2 -8 19 0
-2 -3 -17 0
-1 -15 -16 0
